p edge 684 1368
e 1 509
e 1 254
e 1 253
e 1 478
e 1 477
e 1 510
e 2 256
e 2 255
e 2 479
e 2 512
e 2 511
e 2 480
e 3 481
e 3 482
e 3 429
e 3 430
e 4 483
e 4 484
e 4 431
e 4 432
e 5 581
e 5 582
e 5 489
e 5 490
e 5 446
e 5 317
e 5 445
e 5 318
e 6 583
e 6 584
e 6 491
e 6 492
e 6 319
e 6 320
e 6 447
e 6 448
e 7 557
e 7 365
e 7 558
e 7 366
e 7 241
e 7 242
e 8 559
e 8 560
e 8 243
e 8 244
e 8 367
e 8 368
e 9 525
e 9 261
e 9 262
e 9 526
e 10 528
e 10 527
e 10 263
e 10 264
e 11 377
e 11 378
e 11 517
e 11 518
e 12 379
e 12 380
e 12 519
e 12 520
e 13 557
e 13 389
e 13 390
e 13 559
e 14 560
e 14 558
e 14 391
e 14 392
e 15 597
e 15 598
e 16 599
e 16 600
e 17 373
e 17 374
e 18 375
e 18 376
e 19 529
e 19 530
e 19 521
e 19 522
e 19 429
e 19 431
e 19 401
e 19 402
e 19 245
e 19 246
e 19 281
e 19 282
e 20 531
e 20 523
e 20 524
e 20 430
e 20 432
e 20 532
e 20 403
e 20 404
e 20 247
e 20 248
e 20 283
e 20 284
e 21 345
e 21 346
e 21 385
e 21 386
e 22 347
e 22 348
e 22 388
e 22 387
e 23 681
e 23 682
e 23 597
e 23 438
e 23 599
e 23 437
e 23 349
e 23 350
e 24 684
e 24 683
e 24 440
e 24 598
e 24 439
e 24 600
e 24 351
e 24 352
e 25 229
e 25 230
e 25 273
e 25 274
e 25 501
e 25 502
e 25 505
e 25 506
e 25 605
e 25 606
e 26 231
e 26 232
e 26 275
e 26 276
e 26 503
e 26 504
e 26 507
e 26 508
e 26 607
e 26 608
e 27 629
e 27 333
e 27 334
e 27 630
e 28 632
e 28 631
e 28 335
e 28 336
e 29 353
e 29 354
e 29 617
e 29 618
e 29 465
e 29 466
e 30 355
e 30 356
e 30 619
e 30 620
e 30 467
e 30 468
e 31 641
e 31 642
e 31 457
e 31 458
e 31 619
e 31 617
e 32 643
e 32 460
e 32 618
e 32 459
e 32 620
e 32 644
e 33 421
e 33 422
e 33 649
e 33 650
e 33 461
e 33 462
e 33 549
e 33 633
e 33 634
e 33 313
e 33 314
e 33 550
e 34 636
e 34 652
e 34 551
e 34 423
e 34 424
e 34 651
e 34 552
e 34 463
e 34 464
e 34 315
e 34 316
e 34 635
e 35 353
e 35 355
e 35 341
e 35 342
e 36 354
e 36 356
e 36 343
e 36 344
e 37 549
e 37 551
e 37 505
e 37 661
e 37 662
e 37 377
e 37 379
e 37 507
e 38 508
e 38 550
e 38 552
e 38 664
e 38 663
e 38 506
e 38 378
e 38 380
e 39 353
e 39 356
e 39 461
e 39 463
e 39 413
e 39 414
e 40 354
e 40 355
e 40 462
e 40 464
e 40 415
e 40 416
e 41 265
e 41 266
e 41 589
e 41 590
e 41 433
e 41 434
e 41 437
e 41 439
e 41 665
e 41 666
e 41 253
e 41 255
e 42 267
e 42 268
e 42 591
e 42 592
e 42 435
e 42 436
e 42 438
e 42 440
e 42 667
e 42 668
e 42 254
e 42 256
e 43 369
e 43 370
e 43 617
e 43 620
e 43 305
e 43 306
e 44 618
e 44 619
e 44 371
e 44 308
e 44 307
e 44 372
e 45 361
e 45 362
e 46 363
e 46 364
e 47 409
e 47 410
e 47 467
e 47 465
e 48 466
e 48 411
e 48 412
e 48 468
e 49 453
e 49 454
e 50 455
e 50 456
e 51 393
e 51 394
e 51 237
e 51 238
e 52 395
e 52 396
e 52 239
e 52 240
e 53 641
e 53 643
e 53 413
e 53 281
e 53 283
e 53 573
e 53 574
e 53 415
e 54 642
e 54 644
e 54 416
e 54 282
e 54 284
e 54 414
e 54 575
e 54 576
e 55 416
e 55 413
e 55 429
e 55 432
e 55 369
e 55 371
e 55 277
e 55 310
e 55 570
e 55 569
e 55 309
e 55 256
e 55 253
e 55 278
e 56 311
e 56 280
e 56 430
e 56 431
e 56 414
e 56 370
e 56 372
e 56 415
e 56 279
e 56 312
e 56 571
e 56 572
e 56 254
e 56 255
e 57 609
e 57 610
e 57 645
e 57 646
e 57 477
e 57 479
e 57 605
e 57 607
e 58 611
e 58 612
e 58 647
e 58 648
e 58 606
e 58 480
e 58 478
e 58 608
e 59 533
e 59 285
e 59 286
e 59 534
e 60 536
e 60 535
e 60 287
e 60 288
e 61 393
e 61 395
e 62 394
e 62 396
e 63 437
e 63 440
e 64 438
e 64 439
e 65 541
e 65 237
e 65 239
e 65 382
e 65 593
e 65 594
e 65 381
e 65 542
e 66 238
e 66 240
e 66 595
e 66 596
e 66 383
e 66 384
e 66 543
e 66 544
e 67 289
e 67 290
e 68 291
e 68 292
e 69 321
e 69 322
e 69 578
e 69 301
e 69 302
e 69 537
e 69 538
e 69 577
e 70 323
e 70 324
e 70 579
e 70 303
e 70 304
e 70 580
e 70 539
e 70 540
e 71 385
e 71 433
e 71 387
e 71 435
e 71 401
e 71 562
e 71 403
e 71 561
e 71 441
e 71 442
e 72 386
e 72 388
e 72 402
e 72 436
e 72 434
e 72 563
e 72 404
e 72 564
e 72 443
e 72 444
e 73 329
e 73 330
e 73 497
e 73 498
e 74 331
e 74 332
e 74 499
e 74 500
e 75 541
e 75 543
e 76 542
e 76 544
e 77 297
e 77 298
e 77 621
e 77 622
e 78 299
e 78 300
e 78 623
e 78 624
e 79 517
e 79 519
e 79 625
e 79 626
e 79 669
e 79 670
e 80 518
e 80 520
e 80 627
e 80 628
e 80 671
e 80 672
e 81 477
e 81 365
e 81 367
e 81 241
e 81 243
e 81 285
e 81 287
e 81 480
e 82 366
e 82 368
e 82 242
e 82 244
e 82 478
e 82 286
e 82 479
e 82 288
e 83 469
e 83 470
e 84 471
e 84 472
e 85 349
e 85 273
e 85 275
e 85 351
e 85 573
e 85 575
e 86 350
e 86 274
e 86 276
e 86 352
e 86 574
e 86 576
e 87 357
e 87 358
e 87 493
e 87 494
e 87 313
e 87 315
e 87 381
e 87 383
e 88 359
e 88 360
e 88 495
e 88 496
e 88 314
e 88 316
e 88 382
e 88 384
e 89 473
e 89 474
e 90 475
e 90 476
e 91 669
e 91 285
e 91 593
e 91 595
e 91 288
e 91 541
e 91 671
e 91 544
e 92 670
e 92 542
e 92 594
e 92 596
e 92 287
e 92 286
e 92 543
e 92 672
e 93 317
e 93 319
e 94 318
e 94 320
e 95 257
e 95 258
e 95 613
e 95 614
e 95 329
e 95 669
e 95 331
e 95 337
e 95 338
e 95 445
e 95 447
e 95 672
e 96 259
e 96 260
e 96 615
e 96 616
e 96 330
e 96 332
e 96 670
e 96 339
e 96 340
e 96 446
e 96 671
e 96 448
e 97 273
e 97 276
e 97 309
e 97 311
e 97 509
e 97 511
e 98 274
e 98 275
e 98 310
e 98 312
e 98 510
e 98 512
e 99 513
e 99 514
e 99 397
e 99 398
e 99 565
e 99 566
e 99 665
e 99 667
e 100 515
e 100 516
e 100 399
e 100 400
e 100 567
e 100 568
e 100 666
e 100 668
e 101 553
e 101 554
e 101 533
e 101 535
e 101 665
e 101 668
e 102 555
e 102 556
e 102 534
e 102 536
e 102 666
e 102 667
e 103 517
e 103 520
e 103 233
e 103 234
e 103 461
e 103 527
e 103 464
e 103 349
e 103 525
e 103 352
e 104 518
e 104 519
e 104 235
e 104 236
e 104 462
e 104 463
e 104 526
e 104 528
e 104 350
e 104 351
e 105 449
e 105 450
e 105 469
e 105 471
e 105 249
e 105 250
e 106 451
e 106 452
e 106 470
e 106 472
e 106 251
e 106 252
e 107 577
e 107 579
e 107 557
e 107 560
e 108 578
e 108 580
e 108 558
e 108 559
e 109 497
e 109 499
e 109 245
e 109 247
e 109 537
e 109 539
e 110 498
e 110 500
e 110 246
e 110 248
e 110 538
e 110 540
e 111 293
e 111 294
e 111 265
e 111 267
e 111 241
e 111 473
e 111 244
e 111 409
e 111 411
e 111 475
e 112 476
e 112 295
e 112 296
e 112 266
e 112 268
e 112 242
e 112 243
e 112 474
e 112 410
e 112 412
e 113 613
e 113 615
e 114 614
e 114 616
e 115 629
e 115 631
e 116 630
e 116 632
e 117 645
e 117 279
e 117 647
e 117 457
e 117 589
e 117 459
e 117 397
e 117 399
e 117 373
e 117 591
e 117 375
e 117 277
e 118 460
e 118 646
e 118 648
e 118 458
e 118 280
e 118 398
e 118 400
e 118 374
e 118 376
e 118 592
e 118 590
e 118 278
e 119 453
e 119 455
e 119 561
e 119 563
e 119 249
e 119 251
e 119 637
e 119 638
e 120 454
e 120 456
e 120 562
e 120 564
e 120 250
e 120 252
e 120 639
e 120 640
e 121 257
e 121 513
e 121 259
e 121 515
e 121 573
e 121 576
e 122 258
e 122 516
e 122 514
e 122 260
e 122 574
e 122 575
e 123 233
e 123 235
e 123 269
e 123 270
e 123 605
e 123 608
e 124 234
e 124 236
e 124 271
e 124 272
e 124 606
e 124 607
e 125 585
e 125 586
e 125 337
e 125 339
e 125 405
e 125 406
e 126 587
e 126 588
e 126 338
e 126 340
e 126 407
e 126 408
e 127 309
e 127 312
e 128 310
e 128 311
e 129 301
e 129 303
e 129 629
e 129 632
e 129 505
e 129 508
e 130 302
e 130 304
e 130 630
e 130 631
e 130 506
e 130 507
e 131 673
e 131 674
e 131 549
e 131 552
e 131 649
e 131 651
e 131 441
e 131 443
e 132 675
e 132 676
e 132 550
e 132 551
e 132 650
e 132 652
e 132 442
e 132 444
e 133 645
e 133 648
e 134 646
e 134 647
e 135 653
e 135 654
e 136 655
e 136 656
e 137 657
e 137 658
e 138 659
e 138 660
e 139 609
e 139 611
e 140 610
e 140 612
e 141 481
e 141 483
e 141 485
e 141 326
e 141 325
e 141 486
e 142 482
e 142 484
e 142 327
e 142 487
e 142 488
e 142 328
e 143 553
e 143 555
e 143 621
e 143 623
e 144 554
e 144 556
e 144 622
e 144 624
e 145 577
e 145 361
e 145 580
e 145 297
e 145 299
e 145 332
e 145 329
e 145 644
e 145 565
e 145 567
e 145 641
e 145 363
e 146 578
e 146 579
e 146 300
e 146 642
e 146 298
e 146 331
e 146 364
e 146 643
e 146 568
e 146 566
e 146 362
e 146 330
e 147 673
e 147 675
e 147 333
e 147 335
e 147 337
e 147 340
e 147 373
e 147 376
e 148 674
e 148 676
e 148 334
e 148 336
e 148 338
e 148 339
e 148 374
e 148 375
e 149 245
e 149 248
e 150 246
e 150 247
e 151 545
e 151 546
e 151 445
e 151 448
e 152 547
e 152 548
e 152 446
e 152 447
e 153 521
e 153 523
e 154 522
e 154 524
e 155 481
e 155 484
e 155 421
e 155 423
e 155 489
e 155 491
e 156 482
e 156 483
e 156 422
e 156 424
e 156 490
e 156 492
e 157 681
e 157 683
e 157 677
e 157 678
e 158 682
e 158 684
e 158 679
e 158 680
e 159 417
e 159 418
e 159 421
e 159 424
e 159 621
e 159 269
e 159 271
e 159 624
e 159 509
e 159 512
e 160 419
e 160 420
e 160 422
e 160 423
e 160 270
e 160 623
e 160 272
e 160 510
e 160 511
e 160 622
e 161 677
e 161 679
e 161 585
e 161 587
e 161 529
e 161 531
e 162 678
e 162 680
e 162 586
e 162 588
e 162 530
e 162 532
e 163 581
e 163 583
e 163 653
e 163 655
e 163 405
e 163 407
e 164 582
e 164 584
e 164 654
e 164 656
e 164 406
e 164 408
e 165 465
e 165 468
e 165 581
e 165 584
e 166 466
e 166 467
e 166 582
e 166 583
e 167 289
e 167 291
e 167 293
e 167 263
e 167 295
e 167 602
e 167 601
e 167 261
e 168 290
e 168 292
e 168 294
e 168 296
e 168 264
e 168 603
e 168 604
e 168 262
e 169 321
e 169 323
e 169 425
e 169 426
e 169 657
e 169 659
e 170 322
e 170 324
e 170 427
e 170 428
e 170 658
e 170 660
e 171 417
e 171 540
e 171 419
e 171 476
e 171 229
e 171 231
e 171 473
e 171 661
e 171 663
e 171 313
e 171 316
e 171 537
e 172 418
e 172 539
e 172 420
e 172 538
e 172 230
e 172 232
e 172 664
e 172 662
e 172 474
e 172 314
e 172 315
e 172 475
e 173 525
e 173 389
e 173 391
e 173 528
e 174 526
e 174 390
e 174 527
e 174 392
e 175 357
e 175 325
e 175 359
e 175 327
e 176 360
e 176 358
e 176 326
e 176 328
e 177 609
e 177 612
e 177 649
e 177 652
e 177 493
e 177 495
e 177 529
e 177 532
e 177 533
e 177 536
e 177 661
e 177 664
e 178 610
e 178 611
e 178 663
e 178 650
e 178 651
e 178 494
e 178 496
e 178 530
e 178 531
e 178 534
e 178 535
e 178 662
e 179 545
e 179 673
e 179 547
e 179 676
e 179 389
e 179 392
e 179 653
e 179 656
e 180 546
e 180 675
e 180 548
e 180 390
e 180 391
e 180 674
e 180 654
e 180 655
e 181 545
e 181 548
e 181 405
e 181 408
e 181 281
e 181 284
e 181 381
e 181 384
e 182 546
e 182 547
e 182 406
e 182 407
e 182 282
e 182 283
e 182 382
e 182 383
e 183 229
e 183 232
e 184 230
e 184 231
e 185 521
e 185 524
e 185 357
e 185 360
e 186 522
e 186 523
e 186 358
e 186 359
e 187 289
e 187 292
e 187 233
e 187 236
e 187 369
e 187 372
e 187 469
e 187 472
e 187 633
e 187 635
e 188 290
e 188 291
e 188 234
e 188 235
e 188 370
e 188 371
e 188 470
e 188 471
e 188 634
e 188 636
e 189 325
e 189 328
e 189 269
e 189 272
e 190 327
e 190 270
e 190 271
e 190 326
e 191 513
e 191 516
e 191 297
e 191 300
e 191 561
e 191 564
e 192 514
e 192 515
e 192 298
e 192 299
e 192 562
e 192 563
e 193 401
e 193 393
e 193 396
e 193 301
e 193 304
e 193 305
e 193 307
e 193 404
e 193 593
e 193 596
e 194 402
e 194 394
e 194 395
e 194 302
e 194 303
e 194 306
e 194 403
e 194 308
e 194 595
e 194 594
e 195 585
e 195 588
e 195 397
e 195 400
e 196 586
e 196 587
e 196 398
e 196 399
e 197 449
e 197 451
e 197 485
e 197 487
e 197 589
e 197 592
e 197 341
e 197 343
e 197 441
e 197 444
e 198 450
e 198 452
e 198 486
e 198 488
e 198 590
e 198 591
e 198 342
e 198 344
e 198 442
e 198 443
e 199 597
e 199 600
e 199 565
e 199 568
e 200 599
e 200 566
e 200 567
e 200 598
e 201 257
e 201 260
e 201 677
e 201 680
e 201 333
e 201 336
e 201 377
e 201 380
e 202 258
e 202 259
e 202 678
e 202 679
e 202 334
e 202 335
e 202 378
e 202 379
e 203 684
e 203 553
e 203 556
e 203 493
e 203 496
e 203 681
e 203 345
e 203 347
e 204 554
e 204 555
e 204 494
e 204 495
e 204 682
e 204 346
e 204 348
e 204 683
e 205 385
e 205 388
e 206 386
e 206 387
e 207 412
e 207 569
e 207 433
e 207 409
e 207 436
e 207 249
e 207 571
e 207 252
e 208 570
e 208 434
e 208 435
e 208 410
e 208 250
e 208 251
e 208 572
e 208 411
e 209 417
e 209 420
e 209 425
e 209 427
e 209 497
e 209 500
e 209 345
e 209 348
e 210 418
e 210 419
e 210 426
e 210 428
e 210 498
e 210 499
e 210 346
e 210 347
e 211 489
e 211 492
e 211 625
e 211 627
e 211 277
e 211 280
e 211 633
e 211 636
e 212 490
e 212 491
e 212 626
e 212 628
e 212 278
e 212 279
e 212 634
e 212 635
e 213 637
e 213 639
e 214 638
e 214 640
e 215 449
e 215 452
e 215 453
e 215 456
e 215 341
e 215 344
e 216 450
e 216 451
e 216 454
e 216 455
e 216 342
e 216 343
e 217 657
e 217 660
e 217 501
e 217 503
e 217 601
e 217 603
e 218 658
e 218 659
e 218 502
e 218 504
e 218 602
e 218 604
e 219 261
e 219 616
e 219 264
e 219 237
e 219 240
e 219 613
e 220 262
e 220 615
e 220 263
e 220 238
e 220 239
e 220 614
e 221 321
e 221 324
e 221 293
e 221 296
e 221 265
e 221 268
e 221 488
e 221 601
e 221 485
e 221 604
e 221 637
e 221 640
e 222 322
e 222 323
e 222 294
e 222 295
e 222 266
e 222 267
e 222 487
e 222 602
e 222 603
e 222 638
e 222 639
e 222 486
e 223 365
e 223 368
e 223 501
e 223 504
e 223 569
e 223 572
e 224 366
e 224 367
e 224 502
e 224 503
e 224 570
e 224 571
e 225 460
e 225 361
e 225 364
e 225 305
e 225 457
e 225 308
e 225 317
e 225 320
e 226 459
e 226 362
e 226 363
e 226 306
e 226 307
e 226 458
e 226 318
e 226 319
e 227 425
e 227 625
e 227 428
e 227 628
e 228 426
e 228 427
e 228 627
e 228 626